Data path: /scratch/opt/lxu/CFLG/benchmarks/tree_A
Instance: treeA.400.40
Result path: /scratch/opt/lxu/CFLG/results/tree_A
Solver: Gurobi
Time limit: 7200
Formulation: LEFPAD
Cover: Small
julia --project=. src/main.jl /scratch/opt/lxu/CFLG/benchmarks/tree_A treeA.400.40 /scratch/opt/lxu/CFLG/results/tree_A Gurobi 7200 LEFPAD Small
The latest version of Julia in the `release` channel is 1.11.5+0.x64.linux.gnu. You currently have `1.11.4+0.x64.linux.gnu` installed. Run:

  juliaup update

in your terminal shell to install Julia 1.11.5+0.x64.linux.gnu and update the `release` channel to that version.
/scratch/opt/lxu/CFLG/benchmarks/tree_A Gurobi 7200.0 /scratch/opt/lxu/CFLG/results/tree_A treeA.400.40 LEFPAD Small
/scratch/opt/lxu/CFLG/benchmarks/tree_A/treeA.400.40

 read graph
data loaded


after absorb:257 400

max_piece:22
problem_graph/original graph: node: 257/400 edge: 296/439 dlt: 0.37580728007512665 break_avg_len: 2.2294512966619 break_max_len: 7.553854558324618Vbar/V, Ebar/E(121, 257, 160, 296)
Set parameter TokenServer to value "solice01.zib.de"
Set parameter Threads to value 1
Set parameter OutputFlag to value 1
Gurobi Optimizer version 12.0.1 build v12.0.1rc0 (linux64 - "Debian GNU/Linux 12 (bookworm)")

CPU model: Intel(R) Xeon(R) Gold 5122 CPU @ 3.60GHz, instruction set [SSE2|AVX|AVX2|AVX512]
Thread count: 8 physical cores, 16 logical processors, using up to 1 threads

Non-default parameters:
Threads  1

Optimize a model with 437 rows, 714 columns and 1190 nonzeros
Model fingerprint: 0x8ecb5a4b
Coefficient statistics:
  Matrix range     [1e+00, 1e+00]
  Objective range  [1e+00, 1e+00]
  Bounds range     [1e+00, 1e+00]
  RHS range        [1e+00, 1e+00]
Presolve removed 437 rows and 714 columns
Presolve time: 0.01s
Presolve: All rows and columns removed
Iteration    Objective       Primal Inf.    Dual Inf.      Time
       0    7.8000000e+01   0.000000e+00   0.000000e+00      0s

Solved in 0 iterations and 0.02 seconds (0.00 work units)
Optimal objective  7.800000000e+01

User-callback calls 35, time in user-callback 0.00 sec
elapsed CPU time: 1.330769 seconds
Set parameter TokenServer to value "solice01.zib.de"
Set parameter Threads to value 1
Set parameter OutputFlag to value 1
Set parameter MIPGap to value 0.0001
Set parameter MIPGapAbs to value 0.999998
Set parameter TimeLimit to value 7198.669231

 more cuts: false 0.37580728007512665 false
is_attach:trueformulation:LEFPAD0 238 0

 model loaded

Gurobi Optimizer version 12.0.1 build v12.0.1rc0 (linux64 - "Debian GNU/Linux 12 (bookworm)")

CPU model: Intel(R) Xeon(R) Gold 5122 CPU @ 3.60GHz, instruction set [SSE2|AVX|AVX2|AVX512]
Thread count: 8 physical cores, 16 logical processors, using up to 1 threads

Non-default parameters:
TimeLimit  7198.669231
MIPGapAbs  0.999998
Threads  1

Optimize a model with 3558 rows, 2865 columns and 8774 nonzeros
Model fingerprint: 0xd8292a9a
Variable types: 1333 continuous, 1532 integer (1532 binary)
Coefficient statistics:
  Matrix range     [1e-03, 8e+00]
  Objective range  [1e+00, 1e+00]
  Bounds range     [5e-03, 8e+00]
  RHS range        [1e-06, 8e+00]
Presolve removed 2484 rows and 1729 columns
Presolve time: 0.02s
Presolved: 1074 rows, 1136 columns, 3179 nonzeros
Variable types: 637 continuous, 499 integer (499 binary)
Found heuristic solution: objective 597.0000000

Explored 0 nodes (0 simplex iterations) in 0.02 seconds (0.01 work units)
Thread count was 1 (of 16 available processors)

Solution count 1: 597 

Optimal solution found (tolerance 1.00e-04)
Best objective 5.970000000000e+02, best bound 5.970000000000e+02, gap 0.0000%

User-callback calls 552, time in user-callback 0.00 sec

 sepatime0 0 0
597.0Stat(MathOptInterface.OPTIMAL, 597.0, 597.0, 0.0, 0.0, 1.330769, 0.022705078125, 0, Main.CFLG.LEFPAD, "", #undef)
